Maximize
  4.7816366653100528e-04 Z_27_0_0 + 8.655951942066032e-04 Z_27_0_1
   + 0.7596259737656822 Z_27_0_2 + 3.7225471810551492e-04 Z_27_0_3
   + 0.1386580126554746 Z_27_0_4 + 0.000238996 Z_444_0_0
   + 0.00155905788452324 Z_444_0_1 + 0.6119317428481501 Z_444_0_2
   + 3.0128522704804154e-04 Z_444_0_3 + 0.2859689179942761 Z_444_0_4
   + 1.7516483970839242e-04 Z_678_0_0 + 0.0032202334591298 Z_678_0_1
   + 0.7418286776887497 Z_678_0_2 + 3.2213544291012354e-04 Z_678_0_3
   + 0.154453788569502 Z_678_0_4
Subject To
 constraint1_270: Z_27_0_0 + Z_27_0_1 + Z_27_0_2 + Z_27_0_3 + Z_27_0_4
   <= 1
 constraint1_4440: Z_444_0_0 + Z_444_0_1 + Z_444_0_2 + Z_444_0_3
   + Z_444_0_4 <= 1
 constraint1_6780: Z_678_0_0 + Z_678_0_1 + Z_678_0_2 + Z_678_0_3
   + Z_678_0_4 <= 1
 constraint2_40: <= 1
 constraint2_41: <= 1
 constraint2_42: <= 1
 constraint2_43: <= 1
 constraint2_270: Z_27_0_0 <= 1
 constraint2_271: Z_27_0_1 <= 1
 constraint2_272: Z_27_0_2 <= 1
 constraint2_273: Z_27_0_3 <= 1
 constraint2_4440: Z_444_0_0 <= 1
 constraint2_4441: Z_444_0_1 <= 1
 constraint2_4442: Z_444_0_2 <= 1
 constraint2_4443: Z_444_0_3 <= 1
 constraint2_6780: Z_678_0_0 <= 1
 constraint2_6781: Z_678_0_1 <= 1
 constraint2_6782: Z_678_0_2 <= 1
 constraint2_6783: Z_678_0_3 <= 1
Bounds
Binaries
 Z_27_0_0 Z_27_0_1 Z_27_0_2 Z_27_0_3 Z_27_0_4 Z_444_0_0 Z_444_0_1 Z_444_0_2
 Z_444_0_3 Z_444_0_4 Z_678_0_0 Z_678_0_1 Z_678_0_2 Z_678_0_3 Z_678_0_4
End
